(set-info :smt-lib-version 2.6)
(set-logic QF_UFLRA)
(set-info :source |
MathSat group

|)
(set-info :category "random")
(set-info :status unsat)
(declare-fun x0 () Real)
(declare-fun x1 () Real)
(declare-fun x2 () Real)
(declare-fun x3 () Real)
(declare-fun x4 () Real)
(declare-fun x5 () Real)
(declare-fun x6 () Real)
(declare-fun x7 () Real)
(declare-fun x8 () Real)
(declare-fun x9 () Real)
(declare-fun x10 () Real)
(declare-fun x11 () Real)
(declare-fun x12 () Real)
(declare-fun x13 () Real)
(declare-fun x14 () Real)
(declare-fun x15 () Real)
(declare-fun x16 () Real)
(declare-fun x17 () Real)
(declare-fun x18 () Real)
(declare-fun x19 () Real)
(declare-fun x20 () Real)
(declare-fun x21 () Real)
(declare-fun x22 () Real)
(declare-fun x23 () Real)
(declare-fun x24 () Real)
(declare-fun x25 () Real)
(declare-fun x26 () Real)
(declare-fun x27 () Real)
(declare-fun x28 () Real)
(declare-fun x29 () Real)
(declare-fun f0_1 (Real) Real)
(declare-fun f0_2 (Real Real) Real)
(declare-fun f0_3 (Real Real Real) Real)
(declare-fun f0_4 (Real Real Real Real) Real)
(declare-fun P0 () Bool)
(declare-fun P1 () Bool)
(declare-fun P2 () Bool)
(declare-fun P3 () Bool)
(declare-fun P4 () Bool)
(declare-fun P5 () Bool)
(declare-fun P6 () Bool)
(declare-fun P7 () Bool)
(declare-fun P8 () Bool)
(declare-fun P9 () Bool)
(declare-fun P10 () Bool)
(declare-fun P11 () Bool)
(declare-fun P12 () Bool)
(declare-fun P13 () Bool)
(declare-fun P14 () Bool)
(declare-fun P15 () Bool)
(declare-fun P16 () Bool)
(declare-fun P17 () Bool)
(declare-fun P18 () Bool)
(declare-fun P19 () Bool)
(declare-fun P20 () Bool)
(declare-fun P21 () Bool)
(declare-fun P22 () Bool)
(declare-fun P23 () Bool)
(declare-fun P24 () Bool)
(declare-fun P25 () Bool)
(declare-fun P26 () Bool)
(declare-fun P27 () Bool)
(declare-fun P28 () Bool)
(declare-fun P29 () Bool)
(assert (let ((?v_0 (* 35 x28)) (?v_81 (* 40 x22)) (?v_18 (<= (- (+ (* 19 x0) (* 9 x17)) (* 2 x14)) 4)) (?v_111 (< (- (+ (* 17 x0) (* 6 x16)) (* 21 x1)) 23)) (?v_46 (<= (+ (- (* 37 x16) (* 24 x26)) (* 24 x13)) 10)) (?v_99 (f0_1 x23))) (let ((?v_121 (distinct ?v_99 (f0_2 x11 x26))) (?v_22 (= (f0_1 x22) (f0_1 x20))) (?v_62 (f0_1 x11))) (let ((?v_129 (distinct ?v_62 x25)) (?v_138 (distinct x20 x17)) (?v_84 (= x4 (f0_2 x16 x26))) (?v_42 (distinct (f0_2 x5 x21) ?v_62)) (?v_70 (distinct x24 (f0_1 x24))) (?v_2 (f0_1 x13))) (let ((?v_25 (= (f0_2 x20 x4) ?v_2)) (?v_27 (= (f0_1 x4) (f0_1 x21))) (?v_118 (= (f0_2 x19 x15) (f0_2 x27 x10))) (?v_98 (= (f0_1 x17) (f0_1 x27))) (?v_64 (distinct (f0_2 x6 x10) x0)) (?v_112 (distinct (f0_2 x19 x2) x28)) (?v_65 (distinct ?v_2 x11)) (?v_24 (f0_1 x14))) (let ((?v_107 (= (f0_2 x5 x23) ?v_24)) (?v_92 (= (f0_2 x11 x19) x26)) (?v_51 (= (f0_2 x14 x20) (f0_2 x19 x16))) (?v_72 (= (f0_2 x6 x3) (f0_1 x0))) (?v_13 (= x5 (f0_2 x13 x12))) (?v_14 (= (f0_2 x11 x21) (f0_2 x3 x13))) (?v_109 (distinct (f0_2 x14 x22) ?v_99)) (?v_12 (distinct (f0_1 x8) x4)) (?v_35 (= (f0_2 x24 x10) x25)) (?v_86 (= x15 (f0_2 x23 x26))) (?v_43 (= (f0_2 x17 x23) (f0_2 x17 x18))) (?v_60 (distinct (f0_2 x18 x12) ?v_24)) (?v_59 (distinct (f0_1 x15) x0)) (?v_26 (= (f0_1 x29) x16)) (?v_142 (distinct (f0_2 x16 x29) (f0_2 x25 x25))) (?v_6 (distinct x27 ?v_2)) (?v_76 (not ?v_138)) (?v_5 (not P25)) (?v_1 (not P26)) (?v_94 (not P6)) (?v_3 (not P5))) (let ((?v_9 (not ?v_92)) (?v_10 (not P4)) (?v_17 (not ?v_27)) (?v_88 (not ?v_25)) (?v_106 (not P12)) (?v_102 (not ?v_13)) (?v_16 (not ?v_35)) (?v_55 (not ?v_14)) (?v_49 (not ?v_22)) (?v_38 (not P22)) (?v_33 (not ?v_18)) (?v_48 (not P19)) (?v_103 (not P9)) (?v_73 (not ?v_60)) (?v_32 (not P24)) (?v_67 (not ?v_51)) (?v_119 (not P29)) (?v_29 (not ?v_107)) (?v_45 (not P16)) (?v_50 (not P13)) (?v_41 (not ?v_121)) (?v_132 (not P28)) (?v_56 (not P14)) (?v_117 (not ?v_42)) (?v_71 (not P1)) (?v_91 (not ?v_43)) (?v_82 (not ?v_70)) (?v_125 (not P7)) (?v_87 (not ?v_65)) (?v_115 (not P2)) (?v_136 (not P21)) (?v_93 (not P3)) (?v_114 (not ?v_46)) (?v_127 (not P10)) (?v_63 (not ?v_129)) (?v_66 (not ?v_118)) (?v_79 (not ?v_64)) (?v_153 (not P0)) (?v_130 (or ?v_14 P29)) (?v_108 (not ?v_142)) (?v_155 (not ?v_86)) (?v_110 (not ?v_84)) (?v_97 (not P20)) (?v_96 (not ?v_72)) (?v_113 (not P11)) (?v_135 (not P23)) (?v_124 (not ?v_98)) (?v_116 (not P18)) (?v_151 (not ?v_12)) (?v_156 (or ?v_1 P11)) (?v_137 (not ?v_109)) (?v_131 (not ?v_59)) (?v_126 (not P17)) (?v_146 (not P15))) (let ((?v_159 (or P0 ?v_87)) (?v_150 (not ?v_6)) (?v_140 (not ?v_112)) (?v_141 (not P27)) (?v_147 (not ?v_111)) (?v_154 (not P8)) (?v_7 (< (+ (* 42 x26) (* 7 x19) (* 9 x24)) 18)) (?v_61 (< (- (+ (* 25 x17) (* 41 x17)) x4) 11))) (let ((?v_52 (not ?v_61)) (?v_104 (distinct (- (+ (* 12 x29) (* 15 x12)) 0) 26))) (let ((?v_20 (not ?v_104)) (?v_77 (< (+ (* 32 x27) (* 36 x26) (* 11 x16)) 8))) (let ((?v_23 (not ?v_77)) (?v_78 (not ?v_7)) (?v_133 (<= (+ (* 17 x25) ?v_81 (* 2 x28)) 26))) (let ((?v_105 (not ?v_133)) (?v_40 (distinct (+ (- (* (- 11) x25) (* 42 x20)) ?v_0) (- 35))) (?v_68 (= (- (- (* (- 27) x17) (* 39 x17)) (* 42 x25)) (- 1)))) (let ((?v_36 (not ?v_68)) (?v_11 (<= (+ (* (- 28) x25) ?v_0 (* 5 x14)) 22)) (?v_90 (< (- (+ (* (- 41) x0) (* 40 x5)) (* 30 x14)) 8)) (?v_8 (distinct (+ (* 18 x19) (* 22 x14) (* 17 x17)) (- 28))) (?v_83 (<= (+ (- (* (- 31) x29) (* 21 x4)) (* 28 x6)) (- 28)))) (let ((?v_37 (not ?v_83)) (?v_15 (= (+ (* 27 x10) (* 2 x7) (* 38 x5)) (- 6)))) (let ((?v_4 (not ?v_15)) (?v_89 (< (- (- x10 (* 38 x7)) (* 28 x22)) (- 24))) (?v_21 (not ?v_8)) (?v_57 (not ?v_11)) (?v_28 (< (+ (- (* (- 20) x10) ?v_81) (* 10 x26)) 25))) (let ((?v_34 (not ?v_28)) (?v_31 (< (- (* (- 27) x12) (* 11 x20)) (- 22))) (?v_44 (= (- (+ (* (- 9) x22) x8) (* 41 x19)) 39)) (?v_39 (< (- (- (* (- 16) x14) (* 20 x7)) (* 31 x22)) 36))) (let ((?v_19 (not ?v_39)) (?v_30 (<= (- (- (* (- 15) x13) x1) (* 20 x5)) 2))) (let ((?v_74 (not ?v_30)) (?v_85 (not ?v_31)) (?v_53 (distinct (- (+ (* 27 x24) (* 33 x19)) (* 28 x11)) (- 15)))) (let ((?v_54 (not ?v_53)) (?v_101 (<= (- (+ (* (- 6) x12) (* 27 x13)) (* 30 x20)) 3)) (?v_122 (<= (+ (- (* (- 1) x2) (* 3 x1)) (* 24 x7)) 1))) (let ((?v_47 (not ?v_122)) (?v_58 (distinct (- (+ (* 3 x5) (* 34 x19)) (* 28 x28)) (- 1))) (?v_128 (not ?v_44)) (?v_75 (<= (- (* (- 16) x6) (* 34 x5)) 39)) (?v_69 (<= (+ (* 14 x28) (* 10 x25) (* 29 x22)) (- 11)))) (let ((?v_80 (not ?v_58)) (?v_134 (<= (- (- (* (- 23) x16) (* 37 x23)) (* 22 x18)) (- 11)))) (let ((?v_100 (not ?v_134)) (?v_95 (< (+ (- (* 6 x22) 0) (* 12 x28)) (- 16))) (?v_143 (not ?v_89)) (?v_145 (<= (+ (- (* (- 7) x13) (* 36 x9)) (* 12 x26)) 36)) (?v_123 (not ?v_40)) (?v_120 (not ?v_101)) (?v_158 (or ?v_37 ?v_65)) (?v_144 (not ?v_75))) (let ((?v_139 (not ?v_95)) (?v_148 (not ?v_69)) (?v_152 (or P1 ?v_21)) (?v_157 (or ?v_93 ?v_143)) (?v_149 (not ?v_90))) (and (and (and (and (and (and (and (and (and (and (and (and (and (and (and (and (and (and (and (and (and (and (and (and (and (and (and (and (and (and (and (and (and (and (and (and (and (and (and (and (and (and (and (and (and (and (and (and (and (and (and (and (and (and (and (and (and (and (and (and (and (and (and (and (and (and (and (and (and (and (and (and (and (and (and (and (and (and (and (and (and (and (and (and (and (and (and (and (and (and (and (and (and (and (and (and (and (and (and (and (and (and (and (and (and (and (and (and (and (and (and (and (and (and (and (and (and (and (and (and (and (and (and (and (and (and (and (and (and (and (and (and (and (and (and (and (and (and (and (and (and (and (and (and (and (and (and (and (and (and (and (and (and (and (and (and (and (and (and (and (and (and (and (and (and (and (and (and (and (and (and (and (and (and (and (and (and (and (and (and (and (and (and (and (and (and (and (and (and (and (and (and (and (and (and (and (and (and (and (and (and (and (and (and (and (and (and (and (and (and (and (and (and (and (and (and (and (and (and (and (and (and (and (and (and (and (and (and (and (and (and (and (and (and (and (and (and (and (and (and (and (and (and (and (and (and (and (and (and (and (and (and (and (and (and (and (and (and (and (and (and (and (and (and (and (and (and (and (and (and (and (and (and (and (and (and (and (and (and (and (and (and (and (and (and (and (and (and (and (and (and (and (and (and (and (and (and (and (and (and (and (and (and (and (and (and (and (and (and (and (and (and (and (and (and (and (and (and (and (and (and (and (and (and (and (and (and (and (and (and (and (and (and (and (and (and (and (and (and (and (and (and (and (and (and (and (and (and (and (and (and (and (and (and (and (and (and (and (and (and (and (and (and (and (and (and (and (and (and (and (and (and (and (and (and (and (and (and (and (and (and (and (and (and (and (and (and (and (and (and (and (and (and (and (and (and (and (and (and (and (and (and (and (and (and (and (and (and (and (and (and (and (and (and (and (and (and (and (and (and (and (and (and (and (and (and (and (and (and (and (and (and (and (and (and (and (and (and (and (and (and (and (and (and (and (and (and (and (and (or (or ?v_40 ?v_36) ?v_13) (or (or ?v_11 ?v_14) ?v_90)) (or (or ?v_7 ?v_8) ?v_76)) (or (or ?v_72 ?v_5) ?v_37)) (or (or ?v_42 ?v_1) ?v_52)) (or (or ?v_94 ?v_1) ?v_3)) (or (or P6 ?v_6) ?v_9)) (or (or ?v_4 ?v_89) P7)) (or (or ?v_10 ?v_17) ?v_12)) (or (or ?v_88 ?v_3) ?v_4)) (or (or P2 P21) P1)) (or (or ?v_5 ?v_6) ?v_7)) (or (or ?v_21 P19) ?v_26)) (or (or ?v_9 P15) ?v_10)) (or (or ?v_57 ?v_20) ?v_106)) (or (or ?v_12 ?v_43) ?v_102)) (or (or P26 ?v_16) ?v_55)) (or (or ?v_13 ?v_46) ?v_12)) (or (or ?v_34 P6) ?v_49)) (or (or ?v_38 ?v_15) P5)) (or (or ?v_3 ?v_33) ?v_31)) (or (or ?v_14 ?v_16) ?v_48)) (or (or ?v_17 ?v_103) P21)) (or (or ?v_23 ?v_15) ?v_44)) (or (or ?v_8 ?v_16) P29)) (or (or ?v_111 ?v_73) ?v_19)) (or (or ?v_18 ?v_59) ?v_9)) (or (or P2 ?v_19) ?v_20)) (or (or ?v_5 ?v_84) ?v_21)) (or (or ?v_32 ?v_74) P2)) (or (or P12 ?v_98) ?v_22)) (or (or ?v_64 ?v_67) ?v_3)) (or (or ?v_23 ?v_119) ?v_29)) (or (or ?v_25 ?v_45) ?v_4)) (or (or (not ?v_26) P28) ?v_27)) (or (or ?v_28 ?v_50) ?v_29)) (or (or ?v_30 ?v_41) P9)) (or (or ?v_85 ?v_32) ?v_33)) (or (or ?v_132 ?v_54) ?v_26)) (or (or ?v_34 P24) ?v_35)) (or (or ?v_22 ?v_15) ?v_56)) (or (or ?v_36 P22) P1)) (or (or ?v_37 ?v_38) ?v_28)) (or (or ?v_39 ?v_40) ?v_41)) (or (or ?v_117 ?v_71) ?v_91)) (or (or ?v_23 ?v_44) ?v_35)) (or (or ?v_101 ?v_11) P5)) (or (or P24 ?v_9) ?v_82)) (or (or P29 ?v_18) ?v_45)) (or (or ?v_47 ?v_31) ?v_125)) (or (or P6 ?v_87) ?v_46)) (or (or P28 ?v_47) ?v_48)) (or (or ?v_49 ?v_58) ?v_31)) (or (or ?v_27 ?v_128) ?v_75)) (or (or ?v_115 ?v_136) ?v_8)) (or (or ?v_93 ?v_114) ?v_50)) (or (or ?v_51 ?v_52) ?v_5)) (or (or P28 ?v_36) ?v_53)) (or (or ?v_54 P17) ?v_69)) (or (or ?v_55 ?v_26) P11)) (or (or ?v_3 ?v_127) P26)) (or (or ?v_54 ?v_56) ?v_27)) (or (or ?v_57 P28) ?v_15)) (or (or ?v_80 ?v_33) ?v_59)) (or (or ?v_60 ?v_61) ?v_63)) (or (or P27 ?v_50) P19)) (or (or ?v_66 P2) ?v_100)) (or (or P26 ?v_63) ?v_79)) (or (or ?v_153 ?v_15) P7)) (or (or P2 ?v_14) ?v_30)) (or (or ?v_14 ?v_65) ?v_8)) (or (or ?v_66 ?v_45) ?v_78)) (or (or ?v_67 ?v_16) P21)) (or (or ?v_66 ?v_68) P1)) (or (or ?v_69 ?v_70) ?v_10)) (or (or ?v_42 ?v_71) ?v_72)) (or (or ?v_6 ?v_73) ?v_74)) (or ?v_130 ?v_75)) (or (or ?v_53 ?v_76) P14)) (or (or P5 P21) ?v_29)) (or (or ?v_77 P3) ?v_95)) (or (or ?v_78 ?v_52) P10)) (or (or ?v_7 P17) ?v_79)) (or (or ?v_80 ?v_35) ?v_79)) (or (or ?v_105 ?v_8) ?v_108)) (or (or ?v_29 ?v_69) ?v_57)) (or (or ?v_78 ?v_155) P5)) (or (or ?v_16 ?v_37) ?v_82)) (or (or ?v_55 P26) ?v_83)) (or (or ?v_30 ?v_69) ?v_46)) (or (or ?v_110 ?v_22) ?v_4)) (or (or ?v_71 ?v_85) ?v_5)) (or (or ?v_41 ?v_69) ?v_86)) (or (or ?v_75 ?v_46) ?v_87)) (or (or P2 ?v_84) ?v_15)) (or (or ?v_88 ?v_143) ?v_90)) (or (or ?v_97 ?v_41) P6)) (or (or ?v_91 ?v_44) ?v_60)) (or (or ?v_92 (not ?v_145)) ?v_93)) (or (or ?v_92 P8) ?v_96)) (or (or ?v_45 P25) ?v_8)) (or (or ?v_55 P18) ?v_44)) (or (or ?v_22 P20) P1)) (or (or P4 ?v_94) ?v_77)) (or (or ?v_73 ?v_47) ?v_95)) (or (or ?v_96 ?v_113) P9)) (or (or ?v_86 ?v_97) ?v_67)) (or (or P9 ?v_23) ?v_22)) (or (or ?v_135 P3) ?v_5)) (or (or P14 ?v_61) P23)) (or (or P29 ?v_55) P26)) (or (or ?v_36 P17) P25)) (or (or ?v_124 ?v_109) ?v_20)) (or (or P23 ?v_82) ?v_100)) (or (or ?v_23 ?v_59) ?v_101)) (or (or ?v_102 ?v_92) ?v_123)) (or (or ?v_6 ?v_49) ?v_91)) (or (or ?v_79 ?v_103) ?v_9)) (or (or ?v_104 ?v_57) ?v_51)) (or (or ?v_27 ?v_40) ?v_105)) (or (or ?v_83 ?v_40) ?v_100)) (or (or P10 ?v_105) ?v_106)) (or (or ?v_73 ?v_64) ?v_74)) (or (or ?v_42 ?v_80) ?v_17)) (or (or ?v_116 P16) ?v_20)) (or (or ?v_107 ?v_108) ?v_8)) (or (or ?v_151 P22) ?v_58)) (or ?v_156 ?v_71)) (or (or ?v_60 ?v_137) P17)) (or (or ?v_84 ?v_102) P24)) (or (or ?v_19 ?v_65) ?v_12)) (or (or ?v_110 ?v_120) ?v_25)) (or (or ?v_77 ?v_8) ?v_97)) (or (or ?v_111 ?v_74) ?v_3)) (or (or ?v_89 P21) P16)) (or (or ?v_107 P19) ?v_69)) (or (or ?v_37 ?v_131) ?v_91)) (or (or ?v_112 ?v_51) ?v_95)) (or (or ?v_77 ?v_126) ?v_112)) (or (or ?v_79 ?v_77) P19)) (or (or ?v_111 ?v_113) ?v_70)) (or ?v_158 ?v_100)) (or (or P10 ?v_20) ?v_10)) (or (or ?v_56 P17) ?v_61)) (or (or ?v_43 ?v_64) ?v_146)) (or ?v_159 ?v_114)) (or (or ?v_21 ?v_43) ?v_54)) (or (or ?v_48 ?v_115) P13)) (or (or ?v_91 ?v_45) ?v_116)) (or (or ?v_29 ?v_17) ?v_117)) (or (or ?v_91 ?v_4) ?v_11)) (or (or P23 ?v_54) ?v_118)) (or (or ?v_93 P12) P13)) (or (or ?v_96 ?v_23) ?v_8)) (or (or ?v_40 ?v_91) P12)) (or (or ?v_39 ?v_33) ?v_55)) (or (or P21 ?v_3) ?v_115)) (or (or ?v_50 ?v_28) ?v_36)) (or (or ?v_92 ?v_39) P3)) (or (or ?v_76 P14) ?v_29)) (or (or P28 ?v_56) ?v_75)) (or (or ?v_25 ?v_119) ?v_94)) (or (or ?v_120 ?v_26) ?v_90)) (or (or ?v_111 ?v_43) P14)) (or (or ?v_100 ?v_27) P23)) (or (or ?v_56 P28) ?v_121)) (or (or ?v_121 ?v_54) P8)) (or (or ?v_122 ?v_144) ?v_123)) (or (or ?v_98 P13) ?v_109)) (or (or ?v_80 ?v_90) ?v_47)) (or (or P25 ?v_48) ?v_43)) (or (or ?v_150 ?v_60) ?v_120)) (or (or ?v_118 ?v_124) ?v_125)) (or (or ?v_5 P3) ?v_102)) (or (or ?v_140 ?v_126) ?v_141)) (or (or ?v_36 ?v_20) ?v_55)) (or (or ?v_77 ?v_65) ?v_39)) (or (or ?v_120 ?v_29) ?v_127)) (or (or ?v_64 ?v_113) ?v_58)) (or (or ?v_86 ?v_51) ?v_31)) (or (or ?v_64 P7) P10)) (or (or ?v_128 ?v_4) ?v_126)) (or (or ?v_121 P22) ?v_75)) (or (or ?v_129 ?v_9) ?v_87)) (or ?v_130 P0)) (or (or ?v_131 ?v_40) ?v_112)) (or (or ?v_12 P12) ?v_132)) (or (or P8 ?v_102) ?v_43)) (or (or P21 ?v_56) ?v_107)) (or (or ?v_133 ?v_94) ?v_134)) (or (or ?v_44 ?v_67) ?v_73)) (or (or ?v_108 P23) ?v_82)) (or (or ?v_55 ?v_5) ?v_72)) (or (or ?v_93 ?v_27) ?v_1)) (or (or ?v_135 ?v_136) ?v_109)) (or (or ?v_57 ?v_5) ?v_55)) (or (or ?v_137 P29) ?v_138)) (or (or ?v_123 ?v_116) ?v_30)) (or (or P6 P4) ?v_139)) (or (or ?v_111 ?v_148) ?v_30)) (or (or ?v_69 ?v_57) ?v_26)) (or (or ?v_78 ?v_55) ?v_48)) (or (or ?v_73 ?v_40) P3)) (or (or ?v_85 ?v_134) ?v_60)) (or (or ?v_19 ?v_121) ?v_57)) (or (or P4 ?v_16) ?v_52)) (or (or ?v_84 ?v_76) ?v_139)) (or (or ?v_140 P24) ?v_65)) (or (or ?v_60 ?v_21) ?v_92)) (or (or P16 P15) ?v_56)) (or (or ?v_30 ?v_141) ?v_78)) (or (or ?v_64 ?v_18) ?v_102)) (or (or ?v_103 P27) P1)) (or (or ?v_106 P3) ?v_110)) (or (or ?v_96 P2) P21)) (or (or ?v_78 ?v_20) ?v_29)) (or (or ?v_23 ?v_66) ?v_48)) (or (or P18 ?v_108) ?v_80)) (or (or ?v_77 ?v_9) ?v_43)) (or (or ?v_58 ?v_61) ?v_29)) (or (or ?v_142 P2) P16)) (or (or ?v_128 P29) P15)) (or ?v_152 ?v_97)) (or (or P4 ?v_6) ?v_103)) (or ?v_157 ?v_144)) (or (or P28 P12) ?v_121)) (or (or ?v_41 ?v_132) ?v_44)) (or (or ?v_142 ?v_68) P14)) (or (or ?v_145 ?v_25) ?v_39)) (or (or ?v_36 ?v_37) ?v_106)) (or (or ?v_56 ?v_95) P26)) (or (or ?v_8 ?v_1) P2)) (or (or ?v_6 P29) ?v_19)) (or (or ?v_65 ?v_76) ?v_136)) (or (or ?v_76 P1) ?v_98)) (or (or ?v_48 ?v_112) P29)) (or (or ?v_20 ?v_93) ?v_79)) (or (or ?v_31 P13) ?v_103)) (or (or ?v_1 ?v_47) P0)) (or (or ?v_95 ?v_70) P9)) (or (or ?v_11 P7) ?v_76)) (or (or ?v_38 ?v_133) ?v_97)) (or (or ?v_125 ?v_9) ?v_102)) (or (or ?v_97 P7) P26)) (or (or ?v_110 ?v_32) P26)) (or (or ?v_65 ?v_127) ?v_20)) (or (or ?v_121 ?v_53) ?v_59)) (or (or P26 ?v_119) ?v_18)) (or (or P23 P13) ?v_122)) (or (or ?v_72 ?v_27) ?v_91)) (or (or ?v_31 ?v_131) ?v_128)) (or (or ?v_10 ?v_117) ?v_129)) (or (or ?v_4 ?v_105) ?v_1)) (or (or ?v_60 ?v_114) P1)) (or (or ?v_57 ?v_127) ?v_16)) (or (or P27 ?v_33) ?v_80)) (or (or ?v_23 P22) ?v_42)) (or (or ?v_126 P17) ?v_121)) (or (or ?v_126 ?v_89) ?v_46)) (or (or P28 ?v_54) ?v_21)) (or (or ?v_34 ?v_114) ?v_144)) (or (or P26 ?v_39) ?v_121)) (or (or ?v_140 P16) ?v_96)) (or (or ?v_109 ?v_26) ?v_30)) (or (or ?v_70 ?v_45) ?v_90)) (or (or ?v_53 ?v_42) ?v_20)) (or (or P19 ?v_74) ?v_19)) (or (or ?v_128 ?v_59) ?v_141)) (or (or ?v_44 P5) P10)) (or (or ?v_27 ?v_36) ?v_149)) (or (or ?v_147 ?v_146) ?v_122)) (or (or ?v_133 P9) P26)) (or (or ?v_29 ?v_65) ?v_98)) (or (or ?v_131 ?v_17) ?v_100)) (or (or P8 ?v_83) ?v_136)) (or (or ?v_72 ?v_11) ?v_28)) (or (or ?v_74 ?v_101) ?v_147)) (or (or ?v_31 ?v_58) ?v_125)) (or (or ?v_57 ?v_136) ?v_132)) (or (or ?v_140 ?v_25) ?v_56)) (or (or ?v_43 ?v_121) ?v_88)) (or (or ?v_84 ?v_11) ?v_45)) (or (or ?v_43 P2) ?v_96)) (or (or ?v_128 P6) ?v_52)) (or (or ?v_126 ?v_9) ?v_39)) (or (or ?v_27 ?v_12) ?v_3)) (or (or ?v_26 ?v_58) P4)) (or (or ?v_3 ?v_57) ?v_136)) (or (or ?v_77 ?v_108) ?v_105)) (or (or P6 ?v_74) ?v_140)) (or (or ?v_15 ?v_66) ?v_106)) (or (or P4 ?v_48) ?v_65)) (or (or ?v_154 ?v_102) ?v_65)) (or (or P4 ?v_23) P2)) (or (or ?v_104 ?v_28) ?v_145)) (or (or ?v_113 ?v_113) P25)) (or (or ?v_87 P4) P7)) (or (or ?v_3 ?v_89) ?v_44)) (or (or P7 P27) ?v_3)) (or (or ?v_94 ?v_143) ?v_23)) (or (or ?v_48 ?v_65) P26)) (or (or ?v_50 ?v_90) ?v_55)) (or (or ?v_140 ?v_101) ?v_103)) (or (or P20 ?v_11) ?v_95)) (or (or ?v_66 P9) ?v_31)) (or (or ?v_59 ?v_11) ?v_100)) (or (or ?v_131 ?v_94) P28)) (or (or P7 ?v_5) ?v_38)) (or (or ?v_46 ?v_57) ?v_44)) (or (or ?v_148 ?v_105) P2)) (or (or ?v_36 ?v_149) ?v_77)) (or (or ?v_40 P7) ?v_67)) (or (or ?v_126 ?v_76) ?v_71)) (or (or ?v_143 ?v_101) ?v_85)) (or (or P9 P20) ?v_41)) (or (or ?v_149 ?v_27) ?v_138)) (or (or ?v_124 ?v_63) ?v_14)) (or (or ?v_94 P13) ?v_10)) (or (or ?v_21 ?v_63) ?v_72)) (or (or ?v_68 ?v_114) P19)) (or (or ?v_98 ?v_86) ?v_43)) (or (or ?v_125 ?v_112) ?v_3)) (or (or P21 ?v_30) ?v_118)) (or (or P24 ?v_108) ?v_76)) (or (or ?v_59 ?v_26) P22)) (or (or ?v_65 ?v_111) ?v_67)) (or (or P8 ?v_66) ?v_150)) (or (or ?v_144 ?v_151) ?v_43)) (or (or ?v_80 ?v_13) ?v_89)) (or (or P14 ?v_79) ?v_84)) (or (or P8 ?v_46) P14)) (or (or ?v_73 ?v_55) ?v_97)) (or (or P28 P14) P17)) (or (or ?v_54 ?v_106) ?v_21)) (or ?v_152 P5)) (or (or ?v_34 ?v_15) ?v_148)) (or (or ?v_39 ?v_50) ?v_153)) (or (or ?v_13 ?v_107) ?v_69)) (or (or ?v_1 ?v_45) ?v_7)) (or (or ?v_6 ?v_23) P24)) (or (or P6 P16) ?v_124)) (or (or ?v_129 ?v_49) ?v_67)) (or (or ?v_3 ?v_3) ?v_36)) (or (or ?v_32 P10) ?v_102)) (or (or ?v_128 ?v_61) ?v_97)) (or (or ?v_88 ?v_105) ?v_123)) (or (or ?v_68 P23) P10)) (or (or P2 ?v_85) ?v_89)) (or (or ?v_80 ?v_48) ?v_60)) (or (or P28 ?v_52) ?v_6)) (or (or ?v_5 ?v_34) ?v_134)) (or (or ?v_154 ?v_76) ?v_150)) (or (or ?v_138 P18) ?v_109)) (or (or ?v_112 ?v_86) P23)) (or (or ?v_147 ?v_44) P21)) (or (or ?v_53 ?v_51) P10)) (or (or ?v_75 ?v_136) P11)) (or (or ?v_102 ?v_19) ?v_154)) (or (or ?v_148 P8) P6)) (or (or ?v_147 ?v_36) ?v_15)) (or (or P4 ?v_74) ?v_124)) (or (or ?v_36 ?v_21) ?v_14)) (or (or ?v_111 ?v_122) P16)) (or (or P26 P18) ?v_76)) (or (or ?v_117 ?v_140) ?v_21)) (or (or ?v_125 ?v_132) ?v_74)) (or (or ?v_134 ?v_89) P27)) (or (or ?v_153 P13) ?v_127)) (or (or ?v_88 P27) P22)) (or (or ?v_50 ?v_119) ?v_112)) (or (or ?v_18 P4) ?v_65)) (or (or ?v_90 ?v_140) P1)) (or (or ?v_30 ?v_86) ?v_40)) (or (or ?v_5 ?v_110) ?v_102)) (or (or ?v_25 ?v_133) ?v_112)) (or (or P16 ?v_148) P14)) (or (or ?v_147 ?v_35) ?v_37)) (or (or P19 P5) ?v_75)) (or (or ?v_120 ?v_140) ?v_119)) (or (or ?v_28 P22) ?v_80)) (or (or ?v_63 ?v_27) ?v_67)) (or (or ?v_142 ?v_64) ?v_96)) (or (or ?v_138 ?v_101) ?v_56)) (or (or ?v_103 P16) ?v_52)) (or (or ?v_123 ?v_4) ?v_112)) (or (or ?v_76 ?v_21) ?v_13)) (or (or ?v_68 ?v_56) ?v_51)) (or (or ?v_118 ?v_25) ?v_37)) (or (or ?v_108 ?v_9) ?v_48)) (or (or ?v_131 ?v_85) ?v_22)) (or (or ?v_55 ?v_31) ?v_132)) (or (or ?v_64 ?v_126) ?v_44)) (or (or ?v_155 ?v_135) ?v_149)) (or (or ?v_25 ?v_121) ?v_59)) (or (or ?v_42 ?v_109) ?v_105)) (or (or ?v_80 P29) ?v_94)) (or (or P9 ?v_109) P26)) (or ?v_156 ?v_57)) (or (or ?v_43 ?v_14) ?v_144)) (or (or ?v_126 ?v_68) ?v_82)) (or ?v_157 ?v_114)) (or (or ?v_27 P13) P14)) (or (or ?v_74 ?v_57) P1)) (or (or ?v_68 P8) P1)) (or (or ?v_39 ?v_14) ?v_57)) (or (or ?v_66 ?v_105) P23)) (or (or ?v_17 ?v_140) ?v_115)) (or (or ?v_20 ?v_144) ?v_26)) (or (or ?v_65 ?v_33) ?v_59)) (or (or ?v_49 ?v_94) ?v_143)) (or ?v_158 ?v_64)) (or (or ?v_65 P3) ?v_9)) (or (or P4 ?v_14) ?v_147)) (or (or ?v_135 ?v_144) ?v_151)) (or (or ?v_117 P26) ?v_20)) (or (or ?v_112 ?v_119) ?v_8)) (or (or ?v_105 ?v_27) ?v_3)) (or (or ?v_145 ?v_126) ?v_98)) (or (or ?v_104 ?v_49) ?v_69)) (or (or ?v_136 ?v_70) ?v_3)) (or (or ?v_153 ?v_65) ?v_69)) (or (or ?v_129 ?v_103) ?v_36)) (or (or P22 ?v_123) ?v_83)) (or (or ?v_147 ?v_13) ?v_57)) (or (or ?v_109 ?v_52) ?v_58)) (or (or ?v_141 ?v_146) ?v_145)) (or (or ?v_40 ?v_75) ?v_79)) (or (or ?v_57 ?v_84) ?v_6)) (or (or P0 P6) ?v_50)) (or (or ?v_145 ?v_96) ?v_134)) (or (or P8 ?v_61) ?v_60)) (or (or P11 ?v_32) ?v_10)) (or (or ?v_42 ?v_72) ?v_85)) (or (or ?v_44 ?v_128) ?v_135)) (or (or ?v_64 ?v_128) ?v_40)) (or (or ?v_37 ?v_104) ?v_71)) (or (or ?v_41 ?v_145) P16)) (or (or ?v_93 ?v_118) ?v_38)) (or (or ?v_148 ?v_120) ?v_30)) (or ?v_159 ?v_119)) (or (or ?v_148 ?v_107) ?v_117)) (or (or ?v_65 ?v_29) ?v_76)) (or (or ?v_110 ?v_77) ?v_140)) (or (or P26 ?v_116) P10)) (or (or P28 ?v_140) ?v_96)) (or (or ?v_103 ?v_78) ?v_153)) (or (or ?v_112 P18) ?v_115)) (or (or ?v_45 P23) ?v_133)) (or (or ?v_151 ?v_143) ?v_71)) (or (or ?v_83 ?v_39) ?v_136)))))))))))))))))))))))))
(check-sat)
(exit)
